2027
2969
2912
1781
2566
3089
1338
1995
1386
3254
1475
3264
2069
1596
2405
1863
3211
1162
1462
809
3473
2295
3171
2314
1600
3463
3102
1489
1728
2307
2532
2425
1283
2670
3045
1726
3071
1251
1891
3575
2443
1796
2781
1593
3382
1274
2820
1665
259
879
1081
2966
3587
545
2436
2439
1056
1992
1888
2239
2764
1776
3027
927
1145
1480
2630
705
1882
823
1342
3261
1184
2264
2796
2227
1864
2719
3164
1818

47414
67890
61131
25454
55789
82992
13419
41743
33731

1438
2059
1854
772
1692
2517
407
1266
1023

4342.67

80
115
103
43
94
140
23
71
57
130
43
143
56
46
85
79
148
47
61
19
148
82
149
98
58
138
128
51
83
91
81
115
63
127
137
68
112
49
54
135
97
40
115
32
120
58
96
79
8
13
46
139
138
11
117
114
27
87
68
104
95
44
144
3
35
34
107
34
78
27
41
131
11
88
96
101
83
96
122
87
